c Arquivo convertido de bcsstk04.mtx
p edge 132 1758
e 1 2
e 1 3
e 1 6
e 1 7
e 1 13
e 1 18
e 1 19
e 1 20
e 1 24
e 1 25
e 1 26
e 1 27
e 1 28
e 1 29
e 1 30
e 2 3
e 2 6
e 2 8
e 2 12
e 2 14
e 2 19
e 2 20
e 2 24
e 2 25
e 2 26
e 2 27
e 2 28
e 2 29
e 2 30
e 3 4
e 3 5
e 3 9
e 3 11
e 3 15
e 3 16
e 3 21
e 3 22
e 3 23
e 3 25
e 3 26
e 3 27
e 3 28
e 3 29
e 4 5
e 4 6
e 4 10
e 4 15
e 4 16
e 4 21
e 4 22
e 4 23
e 4 25
e 4 26
e 4 27
e 4 28
e 4 29
e 4 30
e 5 6
e 5 9
e 5 11
e 5 17
e 5 21
e 5 22
e 5 23
e 5 25
e 5 26
e 5 27
e 5 28
e 5 29
e 5 30
e 6 8
e 6 12
e 6 13
e 6 18
e 6 19
e 6 20
e 6 24
e 6 25
e 6 26
e 6 28
e 6 29
e 6 30
e 7 8
e 7 9
e 7 11
e 7 12
e 7 13
e 7 14
e 7 18
e 7 19
e 7 24
e 7 25
e 7 26
e 7 27
e 7 29
e 7 30
e 7 31
e 7 32
e 7 33
e 7 34
e 7 35
e 7 36
e 7 43
e 7 44
e 7 45
e 7 47
e 7 48
e 8 9
e 8 10
e 8 12
e 8 13
e 8 14
e 8 18
e 8 20
e 8 25
e 8 26
e 8 27
e 8 28
e 8 30
e 8 31
e 8 32
e 8 33
e 8 34
e 8 35
e 8 36
e 8 43
e 8 44
e 8 45
e 8 46
e 8 48
e 9 10
e 9 11
e 9 15
e 9 16
e 9 17
e 9 21
e 9 22
e 9 25
e 9 26
e 9 27
e 9 28
e 9 29
e 9 30
e 9 31
e 9 32
e 9 33
e 9 34
e 9 35
e 9 43
e 9 44
e 9 45
e 9 46
e 9 47
e 9 48
e 10 11
e 10 12
e 10 15
e 10 16
e 10 17
e 10 21
e 10 22
e 10 26
e 10 27
e 10 28
e 10 29
e 10 30
e 10 31
e 10 32
e 10 33
e 10 34
e 10 35
e 10 36
e 10 44
e 10 45
e 10 46
e 10 47
e 10 48
e 11 12
e 11 15
e 11 16
e 11 17
e 11 23
e 11 25
e 11 27
e 11 28
e 11 29
e 11 30
e 11 31
e 11 32
e 11 33
e 11 34
e 11 35
e 11 36
e 11 43
e 11 45
e 11 46
e 11 47
e 11 48
e 12 13
e 12 14
e 12 18
e 12 19
e 12 24
e 12 25
e 12 26
e 12 27
e 12 28
e 12 29
e 12 30
e 12 31
e 12 32
e 12 34
e 12 35
e 12 36
e 12 43
e 12 44
e 12 45
e 12 46
e 12 47
e 12 48
e 13 14
e 13 15
e 13 17
e 13 18
e 13 19
e 13 25
e 13 26
e 13 27
e 13 29
e 13 30
e 13 37
e 13 38
e 13 39
e 13 40
e 13 41
e 13 42
e 13 43
e 13 44
e 13 45
e 13 47
e 13 48
e 14 15
e 14 16
e 14 18
e 14 20
e 14 24
e 14 25
e 14 26
e 14 27
e 14 28
e 14 30
e 14 37
e 14 38
e 14 39
e 14 40
e 14 41
e 14 42
e 14 43
e 14 44
e 14 45
e 14 46
e 14 48
e 15 16
e 15 17
e 15 21
e 15 23
e 15 25
e 15 26
e 15 27
e 15 28
e 15 29
e 15 30
e 15 37
e 15 38
e 15 39
e 15 40
e 15 41
e 15 43
e 15 44
e 15 45
e 15 46
e 15 47
e 15 48
e 16 17
e 16 18
e 16 22
e 16 26
e 16 27
e 16 28
e 16 29
e 16 30
e 16 37
e 16 38
e 16 39
e 16 40
e 16 41
e 16 42
e 16 44
e 16 45
e 16 46
e 16 47
e 16 48
e 17 18
e 17 21
e 17 23
e 17 25
e 17 27
e 17 28
e 17 29
e 17 30
e 17 37
e 17 38
e 17 39
e 17 40
e 17 41
e 17 42
e 17 43
e 17 45
e 17 46
e 17 47
e 17 48
e 18 20
e 18 24
e 18 25
e 18 26
e 18 27
e 18 28
e 18 29
e 18 30
e 18 37
e 18 38
e 18 40
e 18 41
e 18 42
e 18 43
e 18 44
e 18 45
e 18 46
e 18 47
e 18 48
e 19 20
e 19 21
e 19 24
e 19 43
e 19 44
e 19 45
e 19 46
e 19 47
e 19 48
e 20 21
e 20 24
e 20 43
e 20 44
e 20 45
e 20 46
e 20 47
e 20 48
e 21 22
e 21 23
e 21 43
e 21 44
e 21 45
e 21 46
e 21 47
e 22 23
e 22 24
e 22 43
e 22 44
e 22 45
e 22 46
e 22 47
e 22 48
e 23 24
e 23 43
e 23 44
e 23 45
e 23 46
e 23 47
e 23 48
e 24 43
e 24 44
e 24 46
e 24 47
e 24 48
e 25 26
e 25 27
e 25 29
e 25 30
e 25 31
e 25 37
e 25 42
e 25 43
e 25 44
e 25 48
e 25 49
e 25 50
e 25 51
e 25 52
e 25 53
e 25 54
e 25 55
e 25 56
e 25 57
e 25 59
e 25 60
e 25 61
e 25 62
e 25 63
e 25 65
e 25 66
e 26 27
e 26 28
e 26 30
e 26 32
e 26 36
e 26 38
e 26 43
e 26 44
e 26 48
e 26 49
e 26 50
e 26 51
e 26 52
e 26 53
e 26 54
e 26 55
e 26 56
e 26 57
e 26 58
e 26 60
e 26 61
e 26 62
e 26 63
e 26 64
e 26 66
e 27 28
e 27 29
e 27 33
e 27 35
e 27 39
e 27 40
e 27 45
e 27 46
e 27 47
e 27 49
e 27 50
e 27 51
e 27 52
e 27 53
e 27 55
e 27 56
e 27 57
e 27 58
e 27 59
e 27 61
e 27 62
e 27 63
e 27 64
e 27 65
e 28 29
e 28 30
e 28 34
e 28 39
e 28 40
e 28 45
e 28 46
e 28 47
e 28 49
e 28 50
e 28 51
e 28 52
e 28 53
e 28 54
e 28 56
e 28 57
e 28 58
e 28 59
e 28 60
e 28 62
e 28 63
e 28 64
e 28 65
e 28 66
e 29 30
e 29 33
e 29 35
e 29 41
e 29 45
e 29 46
e 29 47
e 29 49
e 29 50
e 29 51
e 29 52
e 29 53
e 29 54
e 29 55
e 29 57
e 29 58
e 29 59
e 29 60
e 29 61
e 29 63
e 29 64
e 29 65
e 29 66
e 30 32
e 30 36
e 30 37
e 30 42
e 30 43
e 30 44
e 30 48
e 30 49
e 30 50
e 30 52
e 30 53
e 30 54
e 30 55
e 30 56
e 30 58
e 30 59
e 30 60
e 30 61
e 30 62
e 30 64
e 30 65
e 30 66
e 31 32
e 31 33
e 31 36
e 31 37
e 31 38
e 31 42
e 31 43
e 31 48
e 31 55
e 31 56
e 31 57
e 31 58
e 31 59
e 31 60
e 32 33
e 32 36
e 32 37
e 32 38
e 32 42
e 32 44
e 32 55
e 32 56
e 32 57
e 32 58
e 32 59
e 32 60
e 33 34
e 33 35
e 33 39
e 33 40
e 33 41
e 33 45
e 33 46
e 33 55
e 33 56
e 33 57
e 33 58
e 33 59
e 34 35
e 34 36
e 34 39
e 34 40
e 34 41
e 34 45
e 34 46
e 34 55
e 34 56
e 34 57
e 34 58
e 34 59
e 34 60
e 35 36
e 35 39
e 35 40
e 35 41
e 35 47
e 35 55
e 35 56
e 35 57
e 35 58
e 35 59
e 35 60
e 36 37
e 36 38
e 36 42
e 36 43
e 36 48
e 36 55
e 36 56
e 36 58
e 36 59
e 36 60
e 37 38
e 37 39
e 37 42
e 37 43
e 37 61
e 37 62
e 37 63
e 37 64
e 37 65
e 37 66
e 38 39
e 38 42
e 38 44
e 38 48
e 38 61
e 38 62
e 38 63
e 38 64
e 38 65
e 38 66
e 39 40
e 39 41
e 39 45
e 39 47
e 39 61
e 39 62
e 39 63
e 39 64
e 39 65
e 40 41
e 40 42
e 40 46
e 40 61
e 40 62
e 40 63
e 40 64
e 40 65
e 40 66
e 41 42
e 41 45
e 41 47
e 41 61
e 41 62
e 41 63
e 41 64
e 41 65
e 41 66
e 42 44
e 42 48
e 42 61
e 42 62
e 42 64
e 42 65
e 42 66
e 43 44
e 43 45
e 43 47
e 43 48
e 43 55
e 43 56
e 43 57
e 43 59
e 43 60
e 43 61
e 43 62
e 43 63
e 43 65
e 43 66
e 43 67
e 43 68
e 43 69
e 43 70
e 43 71
e 43 72
e 44 45
e 44 46
e 44 48
e 44 55
e 44 56
e 44 57
e 44 58
e 44 60
e 44 61
e 44 62
e 44 63
e 44 64
e 44 66
e 44 67
e 44 68
e 44 69
e 44 70
e 44 71
e 44 72
e 45 46
e 45 47
e 45 55
e 45 56
e 45 57
e 45 58
e 45 59
e 45 61
e 45 62
e 45 63
e 45 64
e 45 65
e 45 67
e 45 68
e 45 69
e 45 70
e 45 71
e 46 47
e 46 48
e 46 56
e 46 57
e 46 58
e 46 59
e 46 60
e 46 62
e 46 63
e 46 64
e 46 65
e 46 66
e 46 67
e 46 68
e 46 69
e 46 70
e 46 71
e 46 72
e 47 48
e 47 55
e 47 57
e 47 58
e 47 59
e 47 60
e 47 61
e 47 63
e 47 64
e 47 65
e 47 66
e 47 67
e 47 68
e 47 69
e 47 70
e 47 71
e 47 72
e 48 55
e 48 56
e 48 58
e 48 59
e 48 60
e 48 61
e 48 62
e 48 64
e 48 65
e 48 66
e 48 67
e 48 68
e 48 70
e 48 71
e 48 72
e 49 50
e 49 51
e 49 54
e 49 55
e 49 61
e 49 66
e 49 67
e 49 68
e 49 72
e 49 73
e 49 74
e 49 75
e 49 76
e 49 77
e 49 78
e 50 51
e 50 54
e 50 56
e 50 60
e 50 62
e 50 67
e 50 68
e 50 72
e 50 73
e 50 74
e 50 75
e 50 76
e 50 77
e 50 78
e 51 52
e 51 53
e 51 57
e 51 59
e 51 63
e 51 64
e 51 69
e 51 70
e 51 71
e 51 73
e 51 74
e 51 75
e 51 76
e 51 77
e 52 53
e 52 54
e 52 58
e 52 63
e 52 64
e 52 69
e 52 70
e 52 71
e 52 73
e 52 74
e 52 75
e 52 76
e 52 77
e 52 78
e 53 54
e 53 57
e 53 59
e 53 65
e 53 69
e 53 70
e 53 71
e 53 73
e 53 74
e 53 75
e 53 76
e 53 77
e 53 78
e 54 56
e 54 60
e 54 61
e 54 66
e 54 67
e 54 68
e 54 72
e 54 73
e 54 74
e 54 76
e 54 77
e 54 78
e 55 56
e 55 57
e 55 58
e 55 59
e 55 60
e 55 61
e 55 62
e 55 66
e 55 67
e 55 72
e 55 73
e 55 74
e 55 75
e 55 77
e 55 78
e 55 79
e 55 80
e 55 81
e 55 82
e 55 83
e 55 84
e 55 91
e 55 92
e 55 93
e 55 94
e 55 95
e 55 96
e 56 57
e 56 58
e 56 59
e 56 60
e 56 61
e 56 62
e 56 66
e 56 68
e 56 73
e 56 74
e 56 75
e 56 76
e 56 77
e 56 78
e 56 79
e 56 80
e 56 81
e 56 82
e 56 83
e 56 84
e 56 91
e 56 92
e 56 93
e 56 94
e 56 96
e 57 58
e 57 59
e 57 63
e 57 64
e 57 65
e 57 69
e 57 70
e 57 73
e 57 74
e 57 75
e 57 76
e 57 77
e 57 79
e 57 80
e 57 81
e 57 82
e 57 83
e 57 91
e 57 92
e 57 93
e 57 94
e 57 95
e 58 59
e 58 60
e 58 63
e 58 64
e 58 65
e 58 69
e 58 70
e 58 74
e 58 75
e 58 76
e 58 77
e 58 78
e 58 79
e 58 80
e 58 81
e 58 82
e 58 83
e 58 84
e 58 91
e 58 92
e 58 93
e 58 94
e 58 95
e 58 96
e 59 60
e 59 63
e 59 64
e 59 65
e 59 71
e 59 73
e 59 74
e 59 75
e 59 76
e 59 77
e 59 78
e 59 79
e 59 80
e 59 81
e 59 82
e 59 83
e 59 84
e 59 91
e 59 93
e 59 94
e 59 95
e 59 96
e 60 61
e 60 62
e 60 66
e 60 67
e 60 72
e 60 73
e 60 74
e 60 76
e 60 77
e 60 78
e 60 79
e 60 80
e 60 82
e 60 83
e 60 84
e 60 91
e 60 92
e 60 94
e 60 95
e 60 96
e 61 62
e 61 63
e 61 64
e 61 65
e 61 66
e 61 67
e 61 73
e 61 74
e 61 75
e 61 76
e 61 77
e 61 78
e 61 85
e 61 86
e 61 87
e 61 88
e 61 89
e 61 90
e 61 91
e 61 92
e 61 93
e 61 95
e 61 96
e 62 63
e 62 64
e 62 65
e 62 66
e 62 68
e 62 72
e 62 73
e 62 74
e 62 75
e 62 76
e 62 78
e 62 85
e 62 86
e 62 87
e 62 88
e 62 89
e 62 90
e 62 91
e 62 92
e 62 93
e 62 94
e 62 95
e 62 96
e 63 64
e 63 65
e 63 69
e 63 71
e 63 73
e 63 74
e 63 75
e 63 76
e 63 77
e 63 85
e 63 86
e 63 87
e 63 88
e 63 89
e 63 91
e 63 92
e 63 93
e 63 94
e 63 95
e 64 65
e 64 66
e 64 70
e 64 73
e 64 74
e 64 75
e 64 76
e 64 77
e 64 78
e 64 85
e 64 86
e 64 87
e 64 88
e 64 89
e 64 90
e 64 92
e 64 93
e 64 94
e 64 95
e 64 96
e 65 66
e 65 69
e 65 71
e 65 73
e 65 75
e 65 76
e 65 77
e 65 78
e 65 85
e 65 86
e 65 87
e 65 88
e 65 89
e 65 90
e 65 91
e 65 92
e 65 93
e 65 94
e 65 95
e 65 96
e 66 68
e 66 72
e 66 73
e 66 74
e 66 76
e 66 77
e 66 78
e 66 85
e 66 86
e 66 88
e 66 89
e 66 90
e 66 91
e 66 92
e 66 94
e 66 95
e 66 96
e 67 68
e 67 69
e 67 72
e 67 91
e 67 92
e 67 93
e 67 94
e 67 95
e 67 96
e 68 69
e 68 72
e 68 91
e 68 92
e 68 93
e 68 94
e 68 95
e 68 96
e 69 70
e 69 71
e 69 91
e 69 92
e 69 93
e 69 94
e 69 95
e 70 71
e 70 72
e 70 91
e 70 92
e 70 93
e 70 94
e 70 95
e 70 96
e 71 72
e 71 91
e 71 92
e 71 93
e 71 94
e 71 95
e 71 96
e 72 91
e 72 92
e 72 94
e 72 95
e 72 96
e 73 74
e 73 75
e 73 76
e 73 77
e 73 78
e 73 79
e 73 85
e 73 90
e 73 97
e 73 98
e 73 102
e 73 103
e 73 104
e 73 105
e 73 106
e 73 107
e 73 108
e 73 109
e 73 110
e 73 111
e 73 112
e 73 113
e 73 114
e 73 115
e 73 116
e 73 117
e 73 119
e 73 120
e 74 75
e 74 76
e 74 77
e 74 78
e 74 80
e 74 84
e 74 86
e 74 97
e 74 98
e 74 102
e 74 103
e 74 104
e 74 105
e 74 106
e 74 107
e 74 108
e 74 109
e 74 110
e 74 111
e 74 112
e 74 114
e 74 115
e 74 116
e 74 117
e 74 118
e 74 119
e 74 120
e 75 76
e 75 77
e 75 81
e 75 83
e 75 87
e 75 88
e 75 99
e 75 100
e 75 101
e 75 103
e 75 104
e 75 105
e 75 106
e 75 107
e 75 109
e 75 110
e 75 111
e 75 112
e 75 113
e 75 115
e 75 116
e 75 117
e 75 118
e 75 119
e 76 77
e 76 78
e 76 82
e 76 87
e 76 88
e 76 99
e 76 100
e 76 101
e 76 103
e 76 104
e 76 105
e 76 106
e 76 107
e 76 108
e 76 109
e 76 110
e 76 111
e 76 112
e 76 113
e 76 114
e 76 116
e 76 117
e 76 118
e 76 119
e 76 120
e 77 78
e 77 81
e 77 83
e 77 89
e 77 99
e 77 100
e 77 101
e 77 103
e 77 104
e 77 105
e 77 106
e 77 107
e 77 108
e 77 109
e 77 111
e 77 112
e 77 113
e 77 114
e 77 115
e 77 116
e 77 117
e 77 118
e 77 119
e 77 120
e 78 80
e 78 84
e 78 85
e 78 90
e 78 97
e 78 98
e 78 102
e 78 103
e 78 104
e 78 106
e 78 107
e 78 108
e 78 109
e 78 110
e 78 112
e 78 113
e 78 114
e 78 115
e 78 116
e 78 118
e 78 119
e 78 120
e 79 80
e 79 81
e 79 84
e 79 91
e 79 96
e 79 97
e 79 98
e 79 102
e 79 109
e 79 110
e 79 111
e 79 112
e 79 113
e 79 114
e 80 81
e 80 84
e 80 92
e 80 97
e 80 98
e 80 102
e 80 109
e 80 110
e 80 111
e 80 112
e 80 113
e 80 114
e 81 82
e 81 83
e 81 93
e 81 94
e 81 99
e 81 100
e 81 101
e 81 109
e 81 110
e 81 111
e 81 112
e 81 113
e 82 83
e 82 84
e 82 93
e 82 94
e 82 99
e 82 100
e 82 101
e 82 109
e 82 110
e 82 111
e 82 112
e 82 113
e 82 114
e 83 84
e 83 95
e 83 99
e 83 100
e 83 101
e 83 109
e 83 110
e 83 111
e 83 112
e 83 113
e 83 114
e 84 91
e 84 96
e 84 97
e 84 98
e 84 102
e 84 109
e 84 110
e 84 112
e 84 113
e 84 114
e 85 86
e 85 87
e 85 90
e 85 91
e 85 97
e 85 98
e 85 102
e 85 115
e 85 116
e 85 117
e 85 118
e 85 119
e 85 120
e 86 87
e 86 90
e 86 92
e 86 96
e 86 97
e 86 98
e 86 102
e 86 115
e 86 116
e 86 117
e 86 118
e 86 119
e 86 120
e 87 88
e 87 89
e 87 93
e 87 95
e 87 99
e 87 100
e 87 101
e 87 115
e 87 116
e 87 117
e 87 118
e 87 119
e 88 89
e 88 90
e 88 94
e 88 99
e 88 100
e 88 101
e 88 115
e 88 116
e 88 117
e 88 118
e 88 119
e 88 120
e 89 90
e 89 93
e 89 95
e 89 99
e 89 100
e 89 101
e 89 115
e 89 116
e 89 117
e 89 118
e 89 119
e 89 120
e 90 92
e 90 96
e 90 97
e 90 98
e 90 102
e 90 115
e 90 116
e 90 118
e 90 119
e 90 120
e 91 92
e 91 93
e 91 94
e 91 95
e 91 96
e 91 97
e 91 98
e 91 102
e 91 109
e 91 110
e 91 111
e 91 113
e 91 114
e 91 115
e 91 116
e 91 117
e 91 118
e 91 119
e 91 120
e 91 121
e 91 122
e 91 123
e 91 124
e 91 125
e 91 126
e 92 93
e 92 94
e 92 95
e 92 96
e 92 97
e 92 98
e 92 102
e 92 109
e 92 110
e 92 111
e 92 112
e 92 113
e 92 114
e 92 115
e 92 116
e 92 117
e 92 118
e 92 120
e 92 121
e 92 122
e 92 123
e 92 124
e 92 125
e 92 126
e 93 94
e 93 95
e 93 99
e 93 100
e 93 101
e 93 109
e 93 110
e 93 111
e 93 112
e 93 113
e 93 115
e 93 116
e 93 117
e 93 118
e 93 119
e 93 121
e 93 122
e 93 123
e 93 124
e 93 125
e 94 95
e 94 96
e 94 99
e 94 100
e 94 101
e 94 110
e 94 111
e 94 112
e 94 113
e 94 114
e 94 115
e 94 116
e 94 117
e 94 118
e 94 119
e 94 120
e 94 121
e 94 122
e 94 123
e 94 124
e 94 125
e 94 126
e 95 96
e 95 99
e 95 100
e 95 101
e 95 109
e 95 110
e 95 111
e 95 112
e 95 113
e 95 114
e 95 115
e 95 117
e 95 118
e 95 119
e 95 120
e 95 121
e 95 122
e 95 123
e 95 124
e 95 125
e 95 126
e 96 97
e 96 98
e 96 102
e 96 109
e 96 110
e 96 112
e 96 113
e 96 114
e 96 115
e 96 116
e 96 118
e 96 119
e 96 120
e 96 121
e 96 122
e 96 124
e 96 125
e 96 126
e 97 101
e 97 102
e 97 127
e 97 131
e 98 100
e 98 128
e 98 130
e 99 100
e 99 129
e 100 128
e 100 130
e 101 127
e 101 131
e 102 132
e 103 104
e 103 105
e 103 106
e 103 107
e 103 108
e 103 109
e 103 115
e 103 120
e 103 127
e 103 128
e 103 132
e 104 105
e 104 106
e 104 107
e 104 108
e 104 110
e 104 114
e 104 116
e 104 127
e 104 128
e 104 132
e 105 106
e 105 107
e 105 111
e 105 113
e 105 117
e 105 118
e 105 129
e 105 130
e 105 131
e 106 107
e 106 108
e 106 112
e 106 117
e 106 118
e 106 129
e 106 130
e 106 131
e 107 108
e 107 111
e 107 113
e 107 119
e 107 129
e 107 130
e 107 131
e 108 110
e 108 114
e 108 115
e 108 120
e 108 127
e 108 128
e 108 132
e 109 110
e 109 111
e 109 112
e 109 113
e 109 114
e 109 121
e 109 126
e 109 127
e 109 128
e 109 132
e 110 111
e 110 112
e 110 113
e 110 114
e 110 122
e 110 127
e 110 128
e 110 132
e 111 112
e 111 113
e 111 123
e 111 124
e 111 129
e 111 130
e 111 131
e 112 113
e 112 114
e 112 123
e 112 124
e 112 129
e 112 130
e 112 131
e 113 114
e 113 125
e 113 129
e 113 130
e 113 131
e 114 121
e 114 126
e 114 127
e 114 128
e 114 132
e 115 116
e 115 117
e 115 118
e 115 119
e 115 120
e 115 121
e 115 127
e 115 128
e 115 132
e 116 117
e 116 118
e 116 119
e 116 120
e 116 122
e 116 126
e 116 127
e 116 128
e 116 132
e 117 118
e 117 119
e 117 123
e 117 125
e 117 129
e 117 130
e 117 131
e 118 119
e 118 120
e 118 124
e 118 129
e 118 130
e 118 131
e 119 120
e 119 123
e 119 125
e 119 129
e 119 130
e 119 131
e 120 122
e 120 126
e 120 127
e 120 128
e 120 132
e 121 122
e 121 123
e 121 124
e 121 125
e 121 126
e 121 127
e 121 128
e 121 132
e 122 123
e 122 124
e 122 125
e 122 126
e 122 127
e 122 128
e 122 132
e 123 124
e 123 125
e 123 129
e 123 130
e 123 131
e 124 125
e 124 126
e 124 129
e 124 130
e 124 131
e 125 126
e 125 129
e 125 130
e 125 131
e 126 127
e 126 128
e 126 132
e 127 131
e 127 132
e 128 130
e 129 130
